LAMMPS (27 Jun 2024 - Development - patch_27Jun2024-612-gaa0b6c47c2-modified)
# LAMMPS input script for a binary Lennard-Jones fluid in a cubic box

units lj
atom_style atomic

# Create a cubic box with side length 10.08
variable side equal 10.08
region box block 0 ${side} 0 ${side} 0 ${side}
region box block 0 10.08 0 ${side} 0 ${side}
region box block 0 10.08 0 10.08 0 ${side}
region box block 0 10.08 0 10.08 0 10.08
create_box 2 box
Created orthogonal box = (0 0 0) to (10.08 10.08 10.08)
  1 by 1 by 1 MPI processor grid

# Define number of atoms and density
variable natoms equal 512
variable natomstype equal ${natoms}/2
variable natomstype equal 512/2
variable density equal 0.5

# Create atoms
create_atoms 1 random ${natomstype} 12345 box
create_atoms 1 random 256 12345 box
Created 256 atoms
  using lattice units in orthogonal box = (0 0 0) to (10.08 10.08 10.08)
  create_atoms CPU = 0.000 seconds
create_atoms 2 random ${natomstype} 67890 box
create_atoms 2 random 256 67890 box
Created 256 atoms
  using lattice units in orthogonal box = (0 0 0) to (10.08 10.08 10.08)
  create_atoms CPU = 0.000 seconds

# Assign masses
mass 1 1.0
mass 2 1.0

# Define Lennard-Jones potential
pair_style lj/cut 2.5
pair_coeff 1 1 1.0 1.0 2.5
pair_coeff 2 2 1.0 1.0 2.5
pair_coeff 1 2 1.0 1.0 2.5

# Apply tail corrections
pair_modify tail yes

# Set initial velocities
velocity all create 1.0 12345 mom yes dist gaussian

# Energy minimization
minimize 1.0e-4 1.0e-6 100 1000
Generated 0 of 1 mixed pair_coeff terms from geometric mixing rule
Neighbor list info ...
  update: every = 1 steps, delay = 0 steps, check = yes
  max neighbors/atom: 2000, page size: 100000
  master list distance cutoff = 2.8
  ghost atom cutoff = 2.8
  binsize = 1.4, bins = 8 8 8
  1 neighbor lists, perpetual/occasional/extra = 1 0 0
  (1) pair lj/cut, perpetual
      attributes: half, newton on
      pair build: half/bin/atomonly/newton
      stencil: half/bin/3d
      bin: standard
Per MPI rank memory allocation (min/avg/max) = 4.229 | 4.229 | 4.229 Mbytes
   Step          Temp          E_pair         E_mol          TotEng         Press     
         0   1              1.493358e+09   0              1.493358e+09   2.9861612e+09
       100   1             -5.5758331      0             -4.0787628     -0.49053295   
Loop time of 0.0465303 on 1 procs for 100 steps with 512 atoms

96.3% CPU use with 1 MPI tasks x no OpenMP threads

Minimization stats:
  Stopping criterion = max iterations
  Energy initial, next-to-last, final = 
      1493358000.33805  -5.56812250719974  -5.57583310716751
  Force two-norm initial, final = 6.9174852e+13 38.411178
  Force max component initial, final = 3.2278958e+13 4.3492512
  Final line search alpha, max atom move = 0.0084158606 0.036602692
  Iterations, force evaluations = 100 192

MPI task timing breakdown:
Section |  min time  |  avg time  |  max time  |%varavg| %total
---------------------------------------------------------------
Pair    | 0.026758   | 0.026758   | 0.026758   |   0.0 | 57.51
Neigh   | 0.016675   | 0.016675   | 0.016675   |   0.0 | 35.84
Comm    | 0.0013149  | 0.0013149  | 0.0013149  |   0.0 |  2.83
Output  | 1.0209e-05 | 1.0209e-05 | 1.0209e-05 |   0.0 |  0.02
Modify  | 0          | 0          | 0          |   0.0 |  0.00
Other   |            | 0.001773   |            |       |  3.81

Nlocal:            512 ave         512 max         512 min
Histogram: 1 0 0 0 0 0 0 0 0 0
Nghost:           1559 ave        1559 max        1559 min
Histogram: 1 0 0 0 0 0 0 0 0 0
Neighs:          13083 ave       13083 max       13083 min
Histogram: 1 0 0 0 0 0 0 0 0 0

Total # of neighbors = 13083
Ave neighs/atom = 25.552734
Neighbor list builds = 42
Dangerous builds = 0

# Define time step
timestep 0.005

# Microcanonical ensemble (NVE)
fix 1 all nve
thermo 100
thermo_style custom step temp pe ke etotal press density
dump 1 all xyz 100 dump_nve.xyz
run 1000
Generated 0 of 1 mixed pair_coeff terms from geometric mixing rule
Per MPI rank memory allocation (min/avg/max) = 3.113 | 3.113 | 3.113 Mbytes
   Step          Temp          PotEng         KinEng         TotEng         Press         Density    
       100   1             -5.5758331      1.4970703     -4.0787628     -0.49053295     0.49990602   
       200   0.45117028    -4.7481978      0.67543364    -4.0727642     -0.98013355     0.49990602   
       300   0.44256596    -4.7367977      0.66255236    -4.0742454     -0.66698069     0.49990602   
       400   0.45876344    -4.7664669      0.68680112    -4.0796658     -0.88187727     0.49990602   
       500   0.49561512    -4.8269279      0.74197068    -4.0849572     -0.6174969      0.49990602   
       600   0.50697038    -4.8510552      0.7589703     -4.0920849     -0.4598592      0.49990602   
       700   0.51182522    -4.8616657      0.76623834    -4.0954274     -0.2118981      0.49990602   
       800   0.52257035    -4.8772551      0.78232456    -4.0949306     -0.55860113     0.49990602   
       900   0.55620265    -4.9310963      0.83267447    -4.0984218     -0.61535721     0.49990602   
      1000   0.54904303    -4.9265183      0.82195602    -4.1045623     -0.41273705     0.49990602   
      1100   0.5853697     -4.9821496      0.87633959    -4.10581       -0.55762405     0.49990602   
Loop time of 0.131738 on 1 procs for 1000 steps with 512 atoms

Performance: 3279242.282 tau/day, 7590.839 timesteps/s, 3.887 Matom-step/s
98.6% CPU use with 1 MPI tasks x no OpenMP threads

MPI task timing breakdown:
Section |  min time  |  avg time  |  max time  |%varavg| %total
---------------------------------------------------------------
Pair    | 0.08579    | 0.08579    | 0.08579    |   0.0 | 65.12
Neigh   | 0.034634   | 0.034634   | 0.034634   |   0.0 | 26.29
Comm    | 0.0050067  | 0.0050067  | 0.0050067  |   0.0 |  3.80
Output  | 0.002398   | 0.002398   | 0.002398   |   0.0 |  1.82
Modify  | 0.0025666  | 0.0025666  | 0.0025666  |   0.0 |  1.95
Other   |            | 0.001342   |            |       |  1.02

Nlocal:            512 ave         512 max         512 min
Histogram: 1 0 0 0 0 0 0 0 0 0
Nghost:           1561 ave        1561 max        1561 min
Histogram: 1 0 0 0 0 0 0 0 0 0
Neighs:          14142 ave       14142 max       14142 min
Histogram: 1 0 0 0 0 0 0 0 0 0

Total # of neighbors = 14142
Ave neighs/atom = 27.621094
Neighbor list builds = 89
Dangerous builds = 0
unfix 1

# Canonical ensemble (NVT)
fix 2 all nvt temp 1.0 1.0 0.1
thermo 100
dump 2 all xyz 100 dump_nvt.xyz
run 1000
Generated 0 of 1 mixed pair_coeff terms from geometric mixing rule
Per MPI rank memory allocation (min/avg/max) = 4.158 | 4.158 | 4.158 Mbytes
   Step          Temp          PotEng         KinEng         TotEng         Press         Density    
      1100   0.5853697     -4.9821496      0.87633959    -4.10581       -0.55762405     0.49990602   
      1200   1.0460052     -4.5711581      1.5659433     -3.0052147      0.47901724     0.49990602   
      1300   1.0103536     -4.2801258      1.5125705     -2.7675553     -0.07051617     0.49990602   
      1400   1.0439098     -4.0616266      1.5628063     -2.4988203     -0.39855008     0.49990602   
      1500   1.006192      -3.8426168      1.5063402     -2.3362766      0.0035876718   0.49990602   
      1600   1.0002001     -3.7407628      1.4973698     -2.243393      -0.14756878     0.49990602   
      1700   1.0511219     -3.7323284      1.5736033     -2.158725      -0.44270109     0.49990602   
      1800   1.0490986     -3.6445551      1.5705743     -2.0739808     -0.1512415      0.49990602   
      1900   1.0311809     -3.6277798      1.5437503     -2.0840295     -0.20414508     0.49990602   
      2000   0.96573866    -3.5632837      1.4457787     -2.117505      -0.13647787     0.49990602   
      2100   0.95228477    -3.6100062      1.4256373     -2.1843689     -0.22552324     0.49990602   
Loop time of 0.15083 on 1 procs for 1000 steps with 512 atoms

Performance: 2864153.270 tau/day, 6629.984 timesteps/s, 3.395 Matom-step/s
98.5% CPU use with 1 MPI tasks x no OpenMP threads

MPI task timing breakdown:
Section |  min time  |  avg time  |  max time  |%varavg| %total
---------------------------------------------------------------
Pair    | 0.08578    | 0.08578    | 0.08578    |   0.0 | 56.87
Neigh   | 0.049026   | 0.049026   | 0.049026   |   0.0 | 32.50
Comm    | 0.0056894  | 0.0056894  | 0.0056894  |   0.0 |  3.77
Output  | 0.0043128  | 0.0043128  | 0.0043128  |   0.0 |  2.86
Modify  | 0.0047197  | 0.0047197  | 0.0047197  |   0.0 |  3.13
Other   |            | 0.001301   |            |       |  0.86

Nlocal:            512 ave         512 max         512 min
Histogram: 1 0 0 0 0 0 0 0 0 0
Nghost:           1552 ave        1552 max        1552 min
Histogram: 1 0 0 0 0 0 0 0 0 0
Neighs:          11914 ave       11914 max       11914 min
Histogram: 1 0 0 0 0 0 0 0 0 0

Total # of neighbors = 11914
Ave neighs/atom = 23.269531
Neighbor list builds = 128
Dangerous builds = 0
unfix 2

# End of script
Total wall time: 0:00:00
